37
120
96	1
95	1
93	1
92	1
91	1
89	1
88	1
87	2
81	1
80	1
79	1
76	1
70	1
67	2
66	1
65	1
55	2
54	2
50	1
48	1
42	2
41	1
38	1
37	1
36	1
34	3
31	2
29	2
27	3
26	2
20	1
19	1
16	1
15	1
14	2
13	1
12	1
